25° run output:
{
    "Function": "ClusterB500.tsp",
    "Problem dimension": [
        75,
        96,
        63,
        473,
        108,
        252,
        68,
        202,
        26,
        250,
        294,
        441,
        285,
        180,
        327,
        215,
        397,
        220,
        146,
        206,
        124,
        61,
        445,
        109,
        211,
        312,
        159,
        359,
        167,
        421,
        410,
        416,
        32,
        155,
        201,
        91,
        8,
        308,
        345,
        1,
        351,
        77,
        380,
        449,
        34,
        23,
        30,
        243,
        298,
        247,
        221,
        454,
        405,
        139,
        249,
        74,
        319,
        494,
        126,
        426,
        27,
        328,
        450,
        446,
        186,
        56,
        119,
        24,
        487,
        3,
        13,
        191,
        399,
        229,
        16,
        424,
        53,
        292,
        9,
        66,
        376,
        261,
        389,
        98,
        242,
        467,
        320,
        290,
        228,
        145,
        87,
        439,
        338,
        350,
        253,
        89,
        265,
        356,
        188,
        103,
        418,
        313,
        371,
        112,
        43,
        469,
        42,
        121,
        224,
        304,
        129,
        406,
        222,
        364,
        257,
        178,
        381,
        273,
        22,
        432,
        69,
        379,
        81,
        197,
        78,
        377,
        248,
        85,
        125,
        111,
        274,
        208,
        198,
        480,
        185,
        269,
        181,
        268,
        25,
        461,
        160,
        411,
        246,
        306,
        205,
        366,
        21,
        212,
        368,
        479,
        251,
        314,
        240,
        486,
        357,
        183,
        70,
        71,
        187,
        463,
        135,
        164,
        44,
        299,
        216,
        199,
        99,
        279,
        49,
        291,
        239,
        210,
        54,
        330,
        4,
        277,
        244,
        386,
        236,
        88,
        332,
        436,
        275,
        395,
        311,
        272,
        110,
        303,
        176,
        339,
        492,
        297,
        337,
        413,
        97,
        132,
        60,
        175,
        137,
        235,
        352,
        142,
        412,
        300,
        341,
        47,
        493,
        156,
        93,
        483,
        448,
        5,
        490,
        340,
        325,
        190,
        323,
        400,
        362,
        10,
        393,
        118,
        33,
        367,
        218,
        423,
        284,
        354,
        373,
        468,
        51,
        195,
        143,
        20,
        31,
        59,
        14,
        286,
        231,
        2,
        28,
        333,
        355,
        326,
        262,
        158,
        390,
        86,
        482,
        453,
        57,
        256,
        165,
        46,
        438,
        189,
        429,
        115,
        363,
        457,
        437,
        7,
        302,
        67,
        372,
        370,
        361,
        271,
        151,
        346,
        415,
        128,
        310,
        230,
        138,
        65,
        484,
        174,
        117,
        475,
        171,
        447,
        264,
        409,
        105,
        203,
        427,
        443,
        116,
        141,
        489,
        234,
        496,
        38,
        318,
        433,
        19,
        422,
        83,
        425,
        147,
        48,
        169,
        207,
        50,
        358,
        394,
        369,
        153,
        102,
        419,
        170,
        451,
        196,
        495,
        163,
        11,
        315,
        497,
        434,
        307,
        455,
        259,
        391,
        6,
        417,
        260,
        477,
        179,
        476,
        430,
        241,
        331,
        282,
        127,
        499,
        131,
        114,
        403,
        296,
        481,
        317,
        172,
        152,
        465,
        12,
        322,
        154,
        223,
        217,
        459,
        200,
        36,
        120,
        466,
        456,
        462,
        130,
        431,
        460,
        402,
        64,
        324,
        295,
        123,
        106,
        309,
        344,
        488,
        182,
        336,
        276,
        404,
        289,
        237,
        388,
        255,
        491,
        408,
        204,
        281,
        342,
        254,
        428,
        347,
        40,
        219,
        293,
        287,
        458,
        213,
        396,
        471,
        173,
        55,
        385,
        474,
        144,
        420,
        58,
        100,
        414,
        136,
        168,
        226,
        107,
        348,
        95,
        18,
        343,
        35,
        442,
        90,
        162,
        305,
        232,
        140,
        485,
        387,
        267,
        464,
        321,
        238,
        263,
        407,
        209,
        329,
        365,
        17,
        258,
        72,
        470,
        82,
        375,
        227,
        194,
        76,
        29,
        335,
        157,
        452,
        283,
        353,
        278,
        374,
        472,
        148,
        133,
        301,
        94,
        233,
        15,
        52,
        166,
        435,
        0,
        73,
        62,
        184,
        280,
        37,
        266,
        104,
        193,
        45,
        378,
        161,
        80,
        444,
        360,
        192,
        382,
        150,
        149,
        349,
        245,
        113,
        401,
        84,
        79,
        384,
        478,
        177,
        498,
        92,
        334,
        122,
        39,
        225,
        440,
        41,
        134,
        288,
        316,
        398,
        101,
        383,
        270,
        392,
        214
    ],
    "Global Optimum": 0,
    "Algorithm": "Genetic algorithm",
    "Parameters": {
        "population": 30,
        "offspring": 30,
        "mutation probability": 0.002,
        "crossover probability": 0.9
    },
    "Fitness": 647080,
    "Solution": [
        75,
        96,
        63,
        473,
        108,
        252,
        68,
        202,
        26,
        250,
        294,
        441,
        285,
        180,
        327,
        215,
        397,
        220,
        146,
        206,
        124,
        61,
        445,
        109,
        211,
        312,
        159,
        359,
        167,
        421,
        410,
        416,
        32,
        155,
        201,
        91,
        8,
        308,
        345,
        1,
        351,
        77,
        380,
        449,
        34,
        23,
        30,
        243,
        298,
        247,
        221,
        454,
        405,
        139,
        249,
        74,
        319,
        494,
        126,
        426,
        27,
        328,
        450,
        446,
        186,
        56,
        119,
        24,
        487,
        3,
        13,
        191,
        399,
        229,
        16,
        424,
        53,
        292,
        9,
        66,
        376,
        261,
        389,
        98,
        242,
        467,
        320,
        290,
        228,
        145,
        87,
        439,
        338,
        350,
        253,
        89,
        265,
        356,
        188,
        103,
        418,
        313,
        371,
        112,
        43,
        469,
        42,
        121,
        224,
        304,
        129,
        406,
        222,
        364,
        257,
        178,
        381,
        273,
        22,
        432,
        69,
        379,
        81,
        197,
        78,
        377,
        248,
        85,
        125,
        111,
        274,
        208,
        198,
        480,
        185,
        269,
        181,
        268,
        25,
        461,
        160,
        411,
        246,
        306,
        205,
        366,
        21,
        212,
        368,
        479,
        251,
        314,
        240,
        486,
        357,
        183,
        70,
        71,
        187,
        463,
        135,
        164,
        44,
        299,
        216,
        199,
        99,
        279,
        49,
        291,
        239,
        210,
        54,
        330,
        4,
        277,
        244,
        386,
        236,
        88,
        332,
        436,
        275,
        395,
        311,
        272,
        110,
        303,
        176,
        339,
        492,
        297,
        337,
        413,
        97,
        132,
        60,
        175,
        137,
        235,
        352,
        142,
        412,
        300,
        341,
        47,
        493,
        156,
        93,
        483,
        448,
        5,
        490,
        340,
        325,
        190,
        323,
        400,
        362,
        10,
        393,
        118,
        33,
        367,
        218,
        423,
        284,
        354,
        373,
        468,
        51,
        195,
        143,
        20,
        31,
        59,
        14,
        286,
        231,
        2,
        28,
        333,
        355,
        326,
        262,
        158,
        390,
        86,
        482,
        453,
        57,
        256,
        165,
        46,
        438,
        189,
        429,
        115,
        363,
        457,
        437,
        7,
        302,
        67,
        372,
        370,
        361,
        271,
        151,
        346,
        415,
        128,
        310,
        230,
        138,
        65,
        484,
        174,
        117,
        475,
        171,
        447,
        264,
        409,
        105,
        203,
        427,
        443,
        116,
        141,
        489,
        234,
        496,
        38,
        318,
        433,
        19,
        422,
        83,
        425,
        147,
        48,
        169,
        207,
        50,
        358,
        394,
        369,
        153,
        102,
        419,
        170,
        451,
        196,
        495,
        163,
        11,
        315,
        497,
        434,
        307,
        455,
        259,
        391,
        6,
        417,
        260,
        477,
        179,
        476,
        430,
        241,
        331,
        282,
        127,
        499,
        131,
        114,
        403,
        296,
        481,
        317,
        172,
        152,
        465,
        12,
        322,
        154,
        223,
        217,
        459,
        200,
        36,
        120,
        466,
        456,
        462,
        130,
        431,
        460,
        402,
        64,
        324,
        295,
        123,
        106,
        309,
        344,
        488,
        182,
        336,
        276,
        404,
        289,
        237,
        388,
        255,
        491,
        408,
        204,
        281,
        342,
        254,
        428,
        347,
        40,
        219,
        293,
        287,
        458,
        213,
        396,
        471,
        173,
        55,
        385,
        474,
        144,
        420,
        58,
        100,
        414,
        136,
        168,
        226,
        107,
        348,
        95,
        18,
        343,
        35,
        442,
        90,
        162,
        305,
        232,
        140,
        485,
        387,
        267,
        464,
        321,
        238,
        263,
        407,
        209,
        329,
        365,
        17,
        258,
        72,
        470,
        82,
        375,
        227,
        194,
        76,
        29,
        335,
        157,
        452,
        283,
        353,
        278,
        374,
        472,
        148,
        133,
        301,
        94,
        233,
        15,
        52,
        166,
        435,
        0,
        73,
        62,
        184,
        280,
        37,
        266,
        104,
        193,
        45,
        378,
        161,
        80,
        444,
        360,
        192,
        382,
        150,
        149,
        349,
        245,
        113,
        401,
        84,
        79,
        384,
        478,
        177,
        498,
        92,
        334,
        122,
        39,
        225,
        440,
        41,
        134,
        288,
        316,
        398,
        101,
        383,
        270,
        392,
        214
    ],
    "Nb of functions evaluations": 200010,
    "Computational time in seconds": 961.6114075183868,
    "Stopping criterion in evaluations": 200000
}